Route #1: 4 45 23 12 50 17 22 26
Route #2: 47 25 6 36 41
Route #3: 42 20 30 18 1 40
Route #4: 13 46 19 15 49 32 34 16 9
Route #5: 37 44 10 27 8 5 29
Route #6: 48 38 2 43 35 33 7 51
Route #7: 3 31 24 28 39 14 21 11
cost 788.77978515625